% From JaCoP's nonogramRepository/data065.nin
 rows = 25;
 row_rule_len = 4;
 row_rules = array2d(1..rows, 1..row_rule_len, 
[
 0,0,0,5,
 0,4,4,1,
 1,3,3,1,
 0,8,1,1,
 0,0,10,2,
 4,8,4,4,
 6,4,10,1,
 2,4,1,15,
 2,3,5,5,
 0,3,2,2,
 0,3,2,1,
 0,0,6,2,
 0,0,0,7,
 0,0,1,1,
 0,0,1,1,
 0,9,2,1,
 0,0,1,1,
 0,0,1,1,
 0,11,1,1,
 0,0,0,3,
 0,0,0,3,
 0,0,13,5,
 0,0,0,6,
 0,0,1,1,
 0,0,0,6
]);

 cols = 30;
 col_rule_len = 7;
 col_rules = array2d(1..cols, 1..col_rule_len, 
[
 0,0,0,0,0,2,1,
 0,0,0,0,2,1,1,
 0,0,0,0,3,1,1,
 0,0,2,4,1,1,1,
 1,1,1,2,1,1,1,
 1,1,2,1,1,1,1,
 0,4,1,2,1,1,1,
 0,3,1,1,1,1,1,
 0,4,2,2,1,1,1,
 0,3,1,1,1,1,1,
 0,3,3,1,1,1,1,
 0,0,0,3,3,1,1,
 0,0,0,0,3,2,1,
 0,0,0,1,3,2,1,
 0,0,0,0,2,5,1,
 0,0,0,10,4,2,1,
 0,0,0,2,3,1,10,
 0,0,2,3,1,4,1,
 0,0,0,1,5,11,1,
 0,0,0,8,2,2,1,
 0,0,0,0,4,2,3,
 0,0,0,0,0,0,4,
 0,0,0,0,0,0,3,
 0,0,0,0,0,0,3,
 0,0,0,0,0,0,3,
 0,0,0,0,0,0,2,
 0,0,0,0,0,0,3,
 0,0,0,0,0,1,1,
 0,0,0,0,0,1,1,
 0,0,0,0,0,0,2
]);

